set J := 1 2 3 4 5 6 7 8 9 10 11 12 13 14 15;
set K := 1 2 3 4 5 6 7 8 9 10 11 12 13 14 15;
set I := 1 2;

param r :=
	
	1	29.07
	
	2	31.2
	
	3	34.22
	
	4	35.12
	
	5	37.32
	
	6	37.83
	
	7	42.58
	
	8	43.55
	
	9	48.52
	
	10	53.42
	
	11	58.05
	
	12	63.28
		
	13	63.33
	
	14	63.42
	
	15	64.45

;

param p:
	1	2	3	4	5	6	7	8	9	10	11	12	13	14	15 :=
1	17	18	23	15	23	17	9	13	19	19	18	16	10	6	24	
2	20	13	21	24	15	14	19	19	21	18	23	18	23	15	19 ;

param M:= 5100;





